# Objective value = 1.9842747563437454e+03
x[0] 0
x[1] 0
x[2] 1
x[3] 0
x[4] 0
x[5] 0
x[6] 0
x[7] 1
x[8] 1
x[9] 1
x[10] 0
x[11] 0
x[12] 0
x[13] 1
x[14] 0
x[15] 1
x[16] 1
x[17] 0
x[18] 1
x[19] 0
x[20] 0
x[21] 1
x[22] 1
x[23] 0
x[24] 1
x[25] 1
x[26] 1
x[27] 1
x[28] 0
x[29] 1
x[30] 0
x[31] 1
x[32] 1
x[33] 1
x[34] 1
x[35] 0
x[36] 0
x[37] 1
x[38] 1
x[39] 1
x[40] 0
x[41] 0
x[42] 0
x[43] 1
x[44] 1
x[45] 0
x[46] 1
x[47] 1
x[48] 1
x[49] 1
x[50] 1
x[51] 1
x[52] 1
x[53] 1
x[54] 1
x[55] 1
x[56] 0
x[57] 0
x[58] 1
x[59] 0
x[60] 1
x[61] 0
x[62] 0
x[63] 0
x[64] 0
x[65] 0
x[66] 1
x[67] 1
x[68] 1
x[69] 1
x[70] 1
x[71] 0
x[72] 1
x[73] 1
x[74] 0
x[75] 1
x[76] 0
x[77] 1
x[78] 0
x[79] 1
x[80] 0
x[81] 1
x[82] 1
x[83] 1
x[84] 0
x[85] 1
x[86] 1
x[87] 0
x[88] 1
x[89] 1
x[90] 1
x[91] 0
x[92] 1
x[93] 1
x[94] 1
x[95] 1
x[96] 1
x[97] 0
x[98] 1
x[99] 1
x[100] 0
x[101] 1
x[102] 0
x[103] 1
x[104] 0
x[105] 1
x[106] 1
x[107] 1
x[108] 0
x[109] 1
x[110] 1
x[111] 1
x[112] 1
x[113] 1
x[114] 0
x[115] 1
x[116] 1
x[117] 1
x[118] 0
x[119] 1
x[120] 0
x[121] 0
x[122] 1
x[123] 1
x[124] 1
x[125] 1
x[126] 0
x[127] 1
x[128] 0
x[129] 0
x[130] 0
x[131] 1
x[132] 1
x[133] 0
x[134] 1
x[135] 1
x[136] 0
x[137] 1
x[138] 1
x[139] 0
x[140] 1
x[141] 0
x[142] 1
x[143] 1
x[144] 1
x[145] 0
x[146] 1
x[147] 1
x[148] 0
x[149] 0
x[150] 0
x[151] 1
x[152] 1
x[153] 0
x[154] 0
x[155] 1
x[156] 1
x[157] 1
x[158] 1
x[159] 1
x[160] 1
x[161] 0
x[162] 1
x[163] 0
x[164] 0
x[165] 1
x[166] 0
x[167] 0
x[168] 1
x[169] 0
x[170] 0
x[171] 1
x[172] 1
x[173] 0
x[174] 1
x[175] 0
x[176] 0
x[177] 1
x[178] 1
x[179] 1
x[180] 0
x[181] 0
x[182] 1
x[183] 0
x[184] 0
x[185] 0
x[186] 1
x[187] 1
x[188] 0
x[189] 1
x[190] 1
x[191] 1
x[192] 0
x[193] 1
x[194] 0
x[195] 1
x[196] 0
x[197] 0
x[198] 1
x[199] 0
x[200] 1
x[201] 0
x[202] 1
x[203] 0
x[204] 1
x[205] 0
x[206] 0
x[207] 0
x[208] 0
x[209] 0
x[210] 1
x[211] 1
x[212] 1
x[213] 0
x[214] 1
x[215] 0
x[216] 1
x[217] 1
x[218] 1
x[219] 0
x[220] 1
x[221] 0
x[222] 1
x[223] 1
x[224] 1
x[225] 1
x[226] 1
x[227] 1
x[228] 1
x[229] 1
x[230] 0
x[231] 1
x[232] 0
x[233] 1
x[234] 1
x[235] 1
x[236] 1
x[237] 0
x[238] 0
x[239] 1
x[240] 0
x[241] 0
x[242] 1
x[243] 1
x[244] 1
x[245] 0
x[246] 1
x[247] 1
x[248] 1
x[249] 1
x[250] 1
x[251] 0
x[252] 0
x[253] 1
x[254] 1
x[255] 0
x[256] 0
x[257] 0
x[258] 0
x[259] 1
x[260] 1
x[261] 0
x[262] 1
x[263] 0
x[264] 0
x[265] 0
x[266] 0
x[267] 1
x[268] 1
x[269] 0
x[270] 1
x[271] 0
x[272] 1
x[273] 0
x[274] 0
x[275] 0
x[276] 1
x[277] 1
x[278] 0
x[279] 1
x[280] 0
x[281] 1
x[282] 1
x[283] 1
x[284] 1
x[285] 0
x[286] 0
x[287] 1
x[288] 1
x[289] 0
x[290] 1
x[291] 0
x[292] 1
x[293] 0
x[294] 0
x[295] 0
x[296] 0
x[297] 1
x[298] 1
x[299] 1
x[300] 0
x[301] 0
x[302] 1
x[303] 0
x[304] 1
x[305] 0
x[306] 1
x[307] 1
x[308] 1
x[309] 1
x[310] 0
x[311] 1
x[312] 1
x[313] 0
x[314] 0
x[315] 0
x[316] 0
x[317] 1
x[318] 0
x[319] 0
x[320] 1
x[321] 0
x[322] 1
x[323] 1
x[324] 0
x[325] 0
x[326] 1
x[327] 1
x[328] 1
x[329] 1
x[330] 0
x[331] 1
x[332] 1
x[333] 1
x[334] 1
x[335] 1
x[336] 1
x[337] 1
x[338] 1
x[339] 0
x[340] 1
x[341] 1
x[342] 1
x[343] 1
x[344] 1
x[345] 0
x[346] 1
x[347] 1
x[348] 0
x[349] 0
x[350] 0
x[351] 1
x[352] 1
x[353] 1
x[354] 1
x[355] 1
x[356] 0
x[357] 1
x[358] 1
x[359] 1
x[360] 0
x[361] 0
x[362] 0
x[363] 1
x[364] 0
x[365] 0
x[366] 0
x[367] 1
x[368] 1
x[369] 1
x[370] 1
x[371] 0
x[372] 0
x[373] 0
x[374] 0
x[375] 0
x[376] 0
x[377] 1
x[378] 0
x[379] 1
x[380] 0
x[381] 0
x[382] 0
x[383] 1
x[384] 1
x[385] 1
x[386] 0
x[387] 1
x[388] 0
x[389] 0
x[390] 1
x[391] 0
x[392] 0
x[393] 0
x[394] 1
x[395] 1
x[396] 0
x[397] 0
x[398] 0
x[399] 0
x[400] 0
x[401] 0
x[402] 0
x[403] 0
x[404] 0
x[405] 1
x[406] 1
x[407] 0
x[408] 1
x[409] 0
x[410] 1
x[411] 1
x[412] 1
x[413] 0
x[414] 1
x[415] 1
x[416] 0
x[417] 0
x[418] 0
x[419] 0
x[420] 0
x[421] 1
x[422] 0
x[423] 0
x[424] 1
x[425] 0
x[426] 0
x[427] 0
x[428] 1
x[429] 1
x[430] 1
x[431] 1
x[432] 1
x[433] 0
x[434] 1
x[435] 1
x[436] 1
x[437] 1
x[438] 0
x[439] 1
x[440] 1
x[441] 0
x[442] 0
x[443] 0
x[444] 1
x[445] 1
x[446] 0
x[447] 1
x[448] 0
x[449] 0
x[450] 0
x[451] 1
x[452] 1
x[453] 0
x[454] 1
x[455] 1
x[456] 1
x[457] 1
x[458] 0
x[459] 1
x[460] 0
x[461] 0
x[462] 0
x[463] 1
x[464] 1
x[465] 1
x[466] 1
x[467] 1
x[468] 1
x[469] 0
x[470] 1
x[471] 0
x[472] 0
x[473] 1
x[474] 1
x[475] 0
x[476] 1
x[477] 1
x[478] 1
x[479] 0
x[480] 0
x[481] 1
x[482] 0
x[483] 0
x[484] 0
x[485] 1
x[486] 1
x[487] 0
x[488] 1
x[489] 0
x[490] 0
x[491] 1
x[492] 1
x[493] 1
x[494] 0
x[495] 0
x[496] 1
x[497] 1
x[498] 1
x[499] 0
x[500] 1
x[501] 0
x[502] 0
x[503] 0
x[504] 0
x[505] 1
x[506] 0
x[507] 1
x[508] 1
x[509] 1
x[510] 1
x[511] 1
x[512] 0
x[513] 0
x[514] 0
x[515] 1
x[516] 1
x[517] 1
x[518] 1
x[519] 1
x[520] 0
x[521] 0
x[522] 1
x[523] 1
x[524] 1
x[525] 1
x[526] 1
x[527] 1
x[528] 0
x[529] 1
x[530] 1
x[531] 1
x[532] 0
x[533] 1
x[534] 1
x[535] 0
x[536] 0
x[537] 0
x[538] 0
x[539] 1
x[540] 0
x[541] 1
x[542] 0
x[543] 1
x[544] 1
x[545] 1
x[546] 0
x[547] 1
x[548] 1
x[549] 1
x[550] 0
x[551] 0
x[552] 1
x[553] 1
x[554] 0
x[555] 1
x[556] 1
x[557] 1
x[558] 0
x[559] 1
x[560] 0
x[561] 1
x[562] 0
x[563] 0
x[564] 1
x[565] 1
x[566] 0
x[567] 1
x[568] 1
x[569] 1
x[570] 1
x[571] 1
x[572] 1
x[573] 1
x[574] 1
x[575] 0
x[576] 1
x[577] 1
x[578] 1
x[579] 1
x[580] 0
x[581] 0
x[582] 0
x[583] 0
x[584] 1
x[585] 1
x[586] 1
x[587] 0
x[588] 0
x[589] 1
x[590] 1
x[591] 0
x[592] 0
x[593] 1
x[594] 1
x[595] 1
x[596] 1
x[597] 0
x[598] 0
x[599] 0
x[600] 0
x[601] 0
x[602] 1
x[603] 0
x[604] 0
x[605] 1
x[606] 0
x[607] 1
x[608] 1
x[609] 1
x[610] 0
x[611] 1
x[612] 1
x[613] 0
x[614] 1
x[615] 1
x[616] 0
x[617] 0
x[618] 1
x[619] 1
x[620] 0
x[621] 1
x[622] 0
x[623] 1
x[624] 0
x[625] 0
x[626] 1
x[627] 0
x[628] 1
x[629] 0
x[630] 0
x[631] 0
x[632] 1
x[633] 1
x[634] 1
x[635] 0
x[636] 1
x[637] 0
x[638] 1
x[639] 1
x[640] 1
x[641] 1
x[642] 1
x[643] 1
x[644] 1
x[645] 0
x[646] 1
x[647] 1
x[648] 0
x[649] 1
x[650] 0
x[651] 1
x[652] 1
x[653] 0
x[654] 0
x[655] 1
x[656] 0
x[657] 0
x[658] 0
x[659] 1
x[660] 1
x[661] 1
x[662] 1
x[663] 0
x[664] 0
x[665] 0
x[666] 1
x[667] 0
x[668] 1
x[669] 0
x[670] 1
x[671] 1
x[672] 1
x[673] 1
x[674] 1
x[675] 0
x[676] 1
x[677] 1
x[678] 0
x[679] 0
x[680] 1
x[681] 1
x[682] 0
x[683] 0
x[684] 0
x[685] 1
x[686] 0
x[687] 1
x[688] 1
x[689] 0
x[690] 0
x[691] 0
x[692] 1
x[693] 1
x[694] 1
x[695] 1
x[696] 1
x[697] 0
x[698] 1
x[699] 1
x[700] 1
x[701] 0
x[702] 1
x[703] 0
x[704] 0
x[705] 1
x[706] 1
x[707] 1
x[708] 0
x[709] 0
x[710] 1
x[711] 0
x[712] 1
x[713] 1
x[714] 1
x[715] 1
x[716] 1
x[717] 0
x[718] 1
x[719] 1
x[720] 1
x[721] 1
x[722] 1
x[723] 1
x[724] 0
x[725] 1
x[726] 0
x[727] 1
x[728] 1
x[729] 0
x[730] 1
x[731] 0
x[732] 0
x[733] 1
x[734] 1
x[735] 0
x[736] 1
x[737] 1
x[738] 1
x[739] 0
x[740] 0
x[741] 1
x[742] 1
x[743] 1
x[744] 0
x[745] 1
x[746] 0
x[747] 0
x[748] 0
x[749] 0
x[750] 1
x[751] 0
x[752] 0
x[753] 1
x[754] 0
x[755] 1
x[756] 1
x[757] 1
x[758] 1
x[759] 1
x[760] 1
x[761] 0
x[762] 1
x[763] 0
x[764] 0
x[765] 1
x[766] 0
x[767] 1
x[768] 0
x[769] 0
x[770] 0
x[771] 0
x[772] 0
x[773] 0
x[774] 0
x[775] 0
x[776] 1
x[777] 0
x[778] 0
x[779] 0
x[780] 1
x[781] 0
x[782] 0
x[783] 0
x[784] 1
x[785] 1
x[786] 1
x[787] 1
x[788] 1
x[789] 1
x[790] 1
x[791] 1
x[792] 1
x[793] 0
x[794] 0
x[795] 1
x[796] 1
x[797] 1
x[798] 1
x[799] 1
x[800] 0
x[801] 1
x[802] 0
x[803] 0
x[804] 1
x[805] 1
x[806] 1
x[807] 0
x[808] 0
x[809] 0
x[810] 1
x[811] 1
x[812] 1
x[813] 0
x[814] 1
x[815] 0
x[816] 1
x[817] 0
x[818] 0
x[819] 1
x[820] 1
x[821] 1
x[822] 0
x[823] 1
x[824] 1
x[825] 0
x[826] 0
x[827] 1
x[828] 1
x[829] 1
x[830] 0
x[831] 0
x[832] 1
x[833] 1
x[834] 1
x[835] 0
x[836] 1
x[837] 1
x[838] 0
x[839] 1
x[840] 0
x[841] 0
x[842] 1
x[843] 0
x[844] 1
x[845] 0
x[846] 0
x[847] 0
x[848] 1
x[849] 0
x[850] 0
x[851] 0
x[852] 1
x[853] 1
x[854] 0
x[855] 0
x[856] 0
x[857] 1
x[858] 0
x[859] 0
x[860] 0
x[861] 1
x[862] 1
x[863] 1
x[864] 1
x[865] 1
x[866] 0
x[867] 0
x[868] 1
x[869] 0
x[870] 1
x[871] 1
x[872] 0
x[873] 1
x[874] 0
x[875] 0
x[876] 0
x[877] 0
x[878] 0
x[879] 1
x[880] 1
x[881] 0
x[882] 0
x[883] 1
x[884] 1
x[885] 0
x[886] 0
x[887] 1
x[888] 1
x[889] 0
x[890] 1
x[891] 0
x[892] 0
x[893] 0
x[894] 1
x[895] 0
x[896] 0
x[897] 1
x[898] 0
x[899] 1
x[900] 1
x[901] 1
x[902] 1
x[903] 0
x[904] 1
x[905] 1
x[906] 0
x[907] 0
x[908] 0
x[909] 0
x[910] 1
x[911] 1
x[912] 0
x[913] 1
x[914] 1
x[915] 0
x[916] 0
x[917] 0
x[918] 1
x[919] 1
x[920] 1
x[921] 0
x[922] 0
x[923] 1
x[924] 0
x[925] 0
x[926] 1
x[927] 0
x[928] 0
x[929] 0
x[930] 0
x[931] 0
x[932] 1
x[933] 1
x[934] 0
x[935] 1
x[936] 1
x[937] 0
x[938] 1
x[939] 1
x[940] 0
x[941] 0
x[942] 0
x[943] 0
x[944] 1
x[945] 1
x[946] 1
x[947] 1
x[948] 1
x[949] 0
x[950] 1
x[951] 0
x[952] 1
x[953] 0
x[954] 0
x[955] 1
x[956] 1
x[957] 1
x[958] 1
x[959] 0
x[960] 1
x[961] 1
x[962] 1
x[963] 1
x[964] 1
x[965] 1
x[966] 0
x[967] 1
x[968] 0
x[969] 1
x[970] 1
x[971] 1
x[972] 0
x[973] 0
x[974] 1
x[975] 1
x[976] 1
x[977] 0
x[978] 1
x[979] 0
x[980] 0
x[981] 0
x[982] 0
x[983] 1
x[984] 0
x[985] 1
x[986] 0
x[987] 1
x[988] 1
x[989] 0
x[990] 1
x[991] 0
x[992] 1
x[993] 0
x[994] 1
x[995] 1
x[996] 1
x[997] 1
x[998] 1
x[999] 0
